p edge 3012 2912
e 1 2
e 1 3
e 1 4
e 1 5
e 1 6
e 1 7
e 1 8
e 1 9
e 1 10
e 1 11
e 1 12
e 1 13
e 1 14
e 1 15
e 1 16
e 1 17
e 1 18
e 1 19
e 1 20
e 1 21
e 1 22
e 1 23
e 1 24
e 1 25
e 1 26
e 1 27
e 1 28
e 1 29
e 1 30
e 1 31
e 1 32
e 1 33
e 1 34
e 1 35
e 1 36
e 1 37
e 1 38
e 1 39
e 1 40
e 1 41
e 1 42
e 1 43
e 1 44
e 1 45
e 46 47
e 46 48
e 46 49
e 46 50
e 46 51
e 46 52
e 46 53
e 46 54
e 46 55
e 46 56
e 46 57
e 46 58
e 46 59
e 46 60
e 46 61
e 46 62
e 46 63
e 46 64
e 46 65
e 46 66
e 46 67
e 46 68
e 46 69
e 46 70
e 46 71
e 46 72
e 46 73
e 46 74
e 46 75
e 46 76
e 46 77
e 46 78
e 46 79
e 46 80
e 46 81
e 82 83
e 82 84
e 82 85
e 82 86
e 82 87
e 82 88
e 82 89
e 82 90
e 82 91
e 82 92
e 82 93
e 82 94
e 82 95
e 82 96
e 82 97
e 82 98
e 82 99
e 82 100
e 82 101
e 82 102
e 82 103
e 82 104
e 82 105
e 82 106
e 82 107
e 82 108
e 82 109
e 82 110
e 82 111
e 82 112
e 82 113
e 82 114
e 82 115
e 82 116
e 82 117
e 82 118
e 82 119
e 82 120
e 82 121
e 82 122
e 82 123
e 82 124
e 82 125
e 82 126
e 127 128
e 127 129
e 127 130
e 127 131
e 127 132
e 127 133
e 127 134
e 127 135
e 127 136
e 127 137
e 127 138
e 127 139
e 127 140
e 141 142
e 141 143
e 141 144
e 141 145
e 141 146
e 141 147
e 141 148
e 141 149
e 141 150
e 141 151
e 141 152
e 141 153
e 141 154
e 155 156
e 155 157
e 155 158
e 155 159
e 155 160
e 155 161
e 155 162
e 155 163
e 155 164
e 155 165
e 155 166
e 155 167
e 155 168
e 155 169
e 155 170
e 155 171
e 155 172
e 155 173
e 155 174
e 155 175
e 155 176
e 155 177
e 155 178
e 155 179
e 155 180
e 155 181
e 155 182
e 155 183
e 155 184
e 155 185
e 155 186
e 155 187
e 188 189
e 188 190
e 188 191
e 188 192
e 188 193
e 188 194
e 188 195
e 188 196
e 188 197
e 188 198
e 188 199
e 188 200
e 188 201
e 188 202
e 188 203
e 188 204
e 188 205
e 188 206
e 188 207
e 188 208
e 188 209
e 188 210
e 188 211
e 188 212
e 188 213
e 188 214
e 188 215
e 216 217
e 216 218
e 216 219
e 216 220
e 216 221
e 216 222
e 216 223
e 216 224
e 216 225
e 216 226
e 216 227
e 216 228
e 216 229
e 216 230
e 216 231
e 216 232
e 216 233
e 216 234
e 216 235
e 216 236
e 216 237
e 216 238
e 239 240
e 239 241
e 239 242
e 239 243
e 239 244
e 239 245
e 239 246
e 239 247
e 239 248
e 239 249
e 239 250
e 239 251
e 239 252
e 239 253
e 239 254
e 239 255
e 239 256
e 239 257
e 258 259
e 258 260
e 258 261
e 258 262
e 258 263
e 258 264
e 258 265
e 258 266
e 258 267
e 258 268
e 258 269
e 258 270
e 258 271
e 258 272
e 258 273
e 258 274
e 258 275
e 258 276
e 258 277
e 258 278
e 258 279
e 258 280
e 258 281
e 258 282
e 258 283
e 258 284
e 258 285
e 258 286
e 258 287
e 258 288
e 258 289
e 258 290
e 258 291
e 258 292
e 258 293
e 258 294
e 258 295
e 258 296
e 258 297
e 258 298
e 258 299
e 300 301
e 300 302
e 300 303
e 300 304
e 300 305
e 300 306
e 300 307
e 300 308
e 300 309
e 300 310
e 300 311
e 300 312
e 300 313
e 300 314
e 300 315
e 300 316
e 317 318
e 317 319
e 317 320
e 317 321
e 317 322
e 317 323
e 317 324
e 317 325
e 317 326
e 317 327
e 317 328
e 317 329
e 317 330
e 317 331
e 317 332
e 317 333
e 317 334
e 317 335
e 317 336
e 317 337
e 317 338
e 317 339
e 317 340
e 317 341
e 317 342
e 343 344
e 343 345
e 343 346
e 343 347
e 343 348
e 343 349
e 343 350
e 343 351
e 343 352
e 343 353
e 343 354
e 343 355
e 343 356
e 343 357
e 343 358
e 343 359
e 343 360
e 343 361
e 343 362
e 343 363
e 343 364
e 343 365
e 343 366
e 343 367
e 343 368
e 369 370
e 369 371
e 369 372
e 369 373
e 369 374
e 369 375
e 369 376
e 369 377
e 369 378
e 369 379
e 369 380
e 369 381
e 369 382
e 369 383
e 369 384
e 369 385
e 369 386
e 369 387
e 369 388
e 369 389
e 369 390
e 369 391
e 369 392
e 369 393
e 369 394
e 369 395
e 369 396
e 369 397
e 369 398
e 369 399
e 369 400
e 369 401
e 402 403
e 402 404
e 402 405
e 402 406
e 402 407
e 402 408
e 402 409
e 402 410
e 402 411
e 402 412
e 402 413
e 402 414
e 402 415
e 402 416
e 402 417
e 402 418
e 402 419
e 402 420
e 402 421
e 402 422
e 402 423
e 402 424
e 402 425
e 426 427
e 426 428
e 426 429
e 426 430
e 426 431
e 426 432
e 426 433
e 426 434
e 426 435
e 426 436
e 426 437
e 426 438
e 426 439
e 426 440
e 426 441
e 426 442
e 426 443
e 426 444
e 426 445
e 426 446
e 426 447
e 426 448
e 426 449
e 426 450
e 426 451
e 426 452
e 426 453
e 426 454
e 426 455
e 426 456
e 426 457
e 426 458
e 426 459
e 426 460
e 426 461
e 426 462
e 426 463
e 426 464
e 426 465
e 426 466
e 426 467
e 468 469
e 468 470
e 468 471
e 468 472
e 468 473
e 468 474
e 468 475
e 468 476
e 468 477
e 468 478
e 479 480
e 479 481
e 479 482
e 479 483
e 479 484
e 479 485
e 479 486
e 479 487
e 479 488
e 479 489
e 479 490
e 479 491
e 479 492
e 479 493
e 479 494
e 479 495
e 479 496
e 479 497
e 479 498
e 479 499
e 479 500
e 479 501
e 479 502
e 479 503
e 479 504
e 479 505
e 479 506
e 479 507
e 479 508
e 479 509
e 479 510
e 479 511
e 479 512
e 479 513
e 479 514
e 479 515
e 479 516
e 479 517
e 479 518
e 479 519
e 479 520
e 479 521
e 479 522
e 523 524
e 523 525
e 523 526
e 523 527
e 523 528
e 523 529
e 523 530
e 523 531
e 523 532
e 523 533
e 523 534
e 523 535
e 523 536
e 523 537
e 523 538
e 523 539
e 523 540
e 523 541
e 523 542
e 523 543
e 523 544
e 523 545
e 523 546
e 523 547
e 523 548
e 523 549
e 523 550
e 523 551
e 523 552
e 523 553
e 523 554
e 523 555
e 523 556
e 523 557
e 523 558
e 523 559
e 523 560
e 523 561
e 523 562
e 523 563
e 523 564
e 523 565
e 523 566
e 523 567
e 523 568
e 523 569
e 523 570
e 571 572
e 571 573
e 571 574
e 571 575
e 571 576
e 571 577
e 571 578
e 571 579
e 571 580
e 571 581
e 571 582
e 571 583
e 571 584
e 571 585
e 571 586
e 571 587
e 571 588
e 571 589
e 571 590
e 571 591
e 571 592
e 571 593
e 571 594
e 571 595
e 571 596
e 571 597
e 571 598
e 571 599
e 571 600
e 571 601
e 571 602
e 571 603
e 571 604
e 571 605
e 571 606
e 571 607
e 571 608
e 571 609
e 571 610
e 611 612
e 611 613
e 611 614
e 611 615
e 611 616
e 611 617
e 611 618
e 611 619
e 611 620
e 611 621
e 611 622
e 611 623
e 611 624
e 611 625
e 611 626
e 611 627
e 611 628
e 611 629
e 611 630
e 611 631
e 611 632
e 611 633
e 611 634
e 611 635
e 611 636
e 611 637
e 611 638
e 611 639
e 640 641
e 640 642
e 640 643
e 640 644
e 640 645
e 640 646
e 640 647
e 640 648
e 640 649
e 640 650
e 640 651
e 640 652
e 640 653
e 640 654
e 640 655
e 640 656
e 640 657
e 640 658
e 640 659
e 640 660
e 640 661
e 640 662
e 640 663
e 640 664
e 640 665
e 640 666
e 640 667
e 640 668
e 669 670
e 669 671
e 669 672
e 669 673
e 669 674
e 669 675
e 669 676
e 669 677
e 669 678
e 669 679
e 669 680
e 669 681
e 669 682
e 669 683
e 669 684
e 669 685
e 669 686
e 669 687
e 669 688
e 669 689
e 669 690
e 669 691
e 669 692
e 669 693
e 669 694
e 669 695
e 669 696
e 669 697
e 669 698
e 669 699
e 669 700
e 669 701
e 669 702
e 669 703
e 669 704
e 669 705
e 669 706
e 669 707
e 669 708
e 669 709
e 669 710
e 669 711
e 669 712
e 669 713
e 669 714
e 669 715
e 669 716
e 669 717
e 718 719
e 718 720
e 718 721
e 718 722
e 718 723
e 718 724
e 718 725
e 718 726
e 718 727
e 718 728
e 718 729
e 718 730
e 718 731
e 718 732
e 718 733
e 718 734
e 718 735
e 718 736
e 718 737
e 718 738
e 739 740
e 739 741
e 739 742
e 739 743
e 739 744
e 739 745
e 739 746
e 739 747
e 739 748
e 739 749
e 739 750
e 739 751
e 739 752
e 739 753
e 739 754
e 739 755
e 739 756
e 739 757
e 739 758
e 739 759
e 739 760
e 739 761
e 739 762
e 739 763
e 739 764
e 739 765
e 739 766
e 739 767
e 739 768
e 739 769
e 739 770
e 739 771
e 739 772
e 739 773
e 739 774
e 739 775
e 739 776
e 739 777
e 739 778
e 739 779
e 739 780
e 739 781
e 739 782
e 739 783
e 739 784
e 739 785
e 739 786
e 739 787
e 788 789
e 788 790
e 788 791
e 788 792
e 788 793
e 788 794
e 788 795
e 788 796
e 788 797
e 788 798
e 788 799
e 788 800
e 788 801
e 788 802
e 803 804
e 803 805
e 803 806
e 803 807
e 803 808
e 803 809
e 803 810
e 803 811
e 803 812
e 803 813
e 803 814
e 815 816
e 815 817
e 815 818
e 815 819
e 815 820
e 815 821
e 815 822
e 815 823
e 815 824
e 815 825
e 815 826
e 815 827
e 815 828
e 815 829
e 815 830
e 815 831
e 815 832
e 815 833
e 815 834
e 815 835
e 815 836
e 815 837
e 815 838
e 815 839
e 815 840
e 815 841
e 815 842
e 815 843
e 815 844
e 815 845
e 815 846
e 815 847
e 815 848
e 815 849
e 815 850
e 815 851
e 815 852
e 815 853
e 854 855
e 854 856
e 854 857
e 854 858
e 854 859
e 854 860
e 854 861
e 854 862
e 854 863
e 854 864
e 854 865
e 854 866
e 854 867
e 854 868
e 854 869
e 854 870
e 854 871
e 854 872
e 854 873
e 854 874
e 854 875
e 854 876
e 854 877
e 854 878
e 854 879
e 854 880
e 854 881
e 854 882
e 854 883
e 884 885
e 884 886
e 884 887
e 884 888
e 884 889
e 884 890
e 884 891
e 884 892
e 884 893
e 884 894
e 884 895
e 884 896
e 884 897
e 884 898
e 884 899
e 884 900
e 884 901
e 884 902
e 884 903
e 884 904
e 884 905
e 884 906
e 884 907
e 884 908
e 884 909
e 884 910
e 884 911
e 912 913
e 912 914
e 912 915
e 912 916
e 912 917
e 912 918
e 912 919
e 912 920
e 912 921
e 912 922
e 912 923
e 912 924
e 912 925
e 912 926
e 912 927
e 912 928
e 912 929
e 912 930
e 912 931
e 912 932
e 912 933
e 912 934
e 912 935
e 912 936
e 912 937
e 912 938
e 912 939
e 912 940
e 912 941
e 912 942
e 912 943
e 912 944
e 912 945
e 912 946
e 912 947
e 912 948
e 912 949
e 912 950
e 951 952
e 951 953
e 951 954
e 951 955
e 951 956
e 951 957
e 951 958
e 951 959
e 951 960
e 951 961
e 951 962
e 951 963
e 951 964
e 951 965
e 951 966
e 951 967
e 951 968
e 951 969
e 951 970
e 951 971
e 951 972
e 951 973
e 951 974
e 951 975
e 951 976
e 951 977
e 951 978
e 951 979
e 951 980
e 951 981
e 951 982
e 951 983
e 951 984
e 951 985
e 951 986
e 951 987
e 951 988
e 951 989
e 951 990
e 951 991
e 992 993
e 992 994
e 992 995
e 992 996
e 992 997
e 992 998
e 992 999
e 992 1000
e 992 1001
e 992 1002
e 992 1003
e 992 1004
e 1005 1006
e 1005 1007
e 1005 1008
e 1005 1009
e 1005 1010
e 1005 1011
e 1005 1012
e 1005 1013
e 1005 1014
e 1005 1015
e 1005 1016
e 1005 1017
e 1005 1018
e 1005 1019
e 1005 1020
e 1005 1021
e 1005 1022
e 1005 1023
e 1005 1024
e 1005 1025
e 1005 1026
e 1027 1028
e 1027 1029
e 1027 1030
e 1027 1031
e 1027 1032
e 1027 1033
e 1027 1034
e 1027 1035
e 1027 1036
e 1027 1037
e 1027 1038
e 1027 1039
e 1027 1040
e 1027 1041
e 1027 1042
e 1027 1043
e 1044 1045
e 1044 1046
e 1044 1047
e 1044 1048
e 1044 1049
e 1044 1050
e 1044 1051
e 1044 1052
e 1044 1053
e 1044 1054
e 1044 1055
e 1044 1056
e 1044 1057
e 1044 1058
e 1044 1059
e 1044 1060
e 1044 1061
e 1044 1062
e 1044 1063
e 1044 1064
e 1065 1066
e 1065 1067
e 1065 1068
e 1065 1069
e 1065 1070
e 1065 1071
e 1065 1072
e 1065 1073
e 1065 1074
e 1065 1075
e 1065 1076
e 1065 1077
e 1065 1078
e 1065 1079
e 1065 1080
e 1065 1081
e 1065 1082
e 1065 1083
e 1065 1084
e 1065 1085
e 1065 1086
e 1065 1087
e 1065 1088
e 1065 1089
e 1065 1090
e 1065 1091
e 1065 1092
e 1065 1093
e 1065 1094
e 1065 1095
e 1065 1096
e 1065 1097
e 1065 1098
e 1065 1099
e 1065 1100
e 1065 1101
e 1065 1102
e 1065 1103
e 1065 1104
e 1065 1105
e 1106 1107
e 1106 1108
e 1106 1109
e 1106 1110
e 1106 1111
e 1106 1112
e 1106 1113
e 1106 1114
e 1106 1115
e 1106 1116
e 1106 1117
e 1106 1118
e 1106 1119
e 1106 1120
e 1106 1121
e 1106 1122
e 1106 1123
e 1106 1124
e 1106 1125
e 1106 1126
e 1106 1127
e 1106 1128
e 1106 1129
e 1106 1130
e 1106 1131
e 1106 1132
e 1106 1133
e 1106 1134
e 1106 1135
e 1106 1136
e 1106 1137
e 1106 1138
e 1106 1139
e 1106 1140
e 1106 1141
e 1142 1143
e 1142 1144
e 1142 1145
e 1142 1146
e 1142 1147
e 1142 1148
e 1142 1149
e 1142 1150
e 1142 1151
e 1142 1152
e 1142 1153
e 1142 1154
e 1155 1156
e 1155 1157
e 1155 1158
e 1155 1159
e 1155 1160
e 1155 1161
e 1155 1162
e 1155 1163
e 1155 1164
e 1155 1165
e 1155 1166
e 1155 1167
e 1155 1168
e 1155 1169
e 1155 1170
e 1155 1171
e 1155 1172
e 1155 1173
e 1155 1174
e 1155 1175
e 1155 1176
e 1155 1177
e 1155 1178
e 1155 1179
e 1155 1180
e 1155 1181
e 1155 1182
e 1155 1183
e 1155 1184
e 1155 1185
e 1155 1186
e 1155 1187
e 1155 1188
e 1155 1189
e 1155 1190
e 1155 1191
e 1155 1192
e 1155 1193
e 1194 1195
e 1194 1196
e 1194 1197
e 1194 1198
e 1194 1199
e 1194 1200
e 1194 1201
e 1194 1202
e 1194 1203
e 1194 1204
e 1194 1205
e 1194 1206
e 1194 1207
e 1194 1208
e 1194 1209
e 1194 1210
e 1194 1211
e 1194 1212
e 1194 1213
e 1194 1214
e 1194 1215
e 1194 1216
e 1194 1217
e 1194 1218
e 1194 1219
e 1194 1220
e 1194 1221
e 1194 1222
e 1194 1223
e 1194 1224
e 1194 1225
e 1194 1226
e 1194 1227
e 1194 1228
e 1194 1229
e 1194 1230
e 1194 1231
e 1194 1232
e 1194 1233
e 1194 1234
e 1194 1235
e 1194 1236
e 1194 1237
e 1194 1238
e 1194 1239
e 1194 1240
e 1194 1241
e 1242 1243
e 1242 1244
e 1242 1245
e 1242 1246
e 1242 1247
e 1242 1248
e 1242 1249
e 1242 1250
e 1242 1251
e 1242 1252
e 1242 1253
e 1242 1254
e 1242 1255
e 1242 1256
e 1242 1257
e 1242 1258
e 1242 1259
e 1242 1260
e 1242 1261
e 1242 1262
e 1242 1263
e 1242 1264
e 1242 1265
e 1242 1266
e 1242 1267
e 1242 1268
e 1242 1269
e 1242 1270
e 1242 1271
e 1242 1272
e 1242 1273
e 1242 1274
e 1242 1275
e 1242 1276
e 1242 1277
e 1242 1278
e 1242 1279
e 1242 1280
e 1242 1281
e 1242 1282
e 1242 1283
e 1242 1284
e 1242 1285
e 1286 1287
e 1286 1288
e 1286 1289
e 1286 1290
e 1286 1291
e 1286 1292
e 1286 1293
e 1286 1294
e 1286 1295
e 1286 1296
e 1286 1297
e 1286 1298
e 1286 1299
e 1286 1300
e 1286 1301
e 1286 1302
e 1286 1303
e 1286 1304
e 1286 1305
e 1306 1307
e 1306 1308
e 1306 1309
e 1306 1310
e 1306 1311
e 1306 1312
e 1306 1313
e 1306 1314
e 1306 1315
e 1306 1316
e 1306 1317
e 1306 1318
e 1306 1319
e 1306 1320
e 1306 1321
e 1306 1322
e 1306 1323
e 1324 1325
e 1324 1326
e 1324 1327
e 1324 1328
e 1324 1329
e 1324 1330
e 1324 1331
e 1324 1332
e 1324 1333
e 1324 1334
e 1324 1335
e 1324 1336
e 1324 1337
e 1324 1338
e 1339 1340
e 1339 1341
e 1339 1342
e 1339 1343
e 1339 1344
e 1339 1345
e 1339 1346
e 1339 1347
e 1339 1348
e 1339 1349
e 1339 1350
e 1339 1351
e 1339 1352
e 1339 1353
e 1339 1354
e 1339 1355
e 1339 1356
e 1339 1357
e 1339 1358
e 1339 1359
e 1339 1360
e 1339 1361
e 1339 1362
e 1339 1363
e 1339 1364
e 1339 1365
e 1339 1366
e 1339 1367
e 1339 1368
e 1339 1369
e 1339 1370
e 1339 1371
e 1339 1372
e 1339 1373
e 1339 1374
e 1339 1375
e 1339 1376
e 1339 1377
e 1378 1379
e 1378 1380
e 1378 1381
e 1378 1382
e 1378 1383
e 1378 1384
e 1378 1385
e 1378 1386
e 1378 1387
e 1378 1388
e 1378 1389
e 1378 1390
e 1378 1391
e 1378 1392
e 1378 1393
e 1378 1394
e 1378 1395
e 1396 1397
e 1396 1398
e 1396 1399
e 1396 1400
e 1396 1401
e 1396 1402
e 1396 1403
e 1396 1404
e 1396 1405
e 1396 1406
e 1396 1407
e 1396 1408
e 1396 1409
e 1396 1410
e 1396 1411
e 1396 1412
e 1396 1413
e 1396 1414
e 1396 1415
e 1396 1416
e 1396 1417
e 1396 1418
e 1396 1419
e 1396 1420
e 1396 1421
e 1396 1422
e 1396 1423
e 1396 1424
e 1396 1425
e 1396 1426
e 1396 1427
e 1396 1428
e 1396 1429
e 1396 1430
e 1396 1431
e 1396 1432
e 1396 1433
e 1396 1434
e 1396 1435
e 1396 1436
e 1396 1437
e 1396 1438
e 1396 1439
e 1396 1440
e 1441 1442
e 1441 1443
e 1441 1444
e 1441 1445
e 1441 1446
e 1441 1447
e 1441 1448
e 1441 1449
e 1441 1450
e 1441 1451
e 1441 1452
e 1441 1453
e 1441 1454
e 1441 1455
e 1441 1456
e 1441 1457
e 1441 1458
e 1441 1459
e 1441 1460
e 1441 1461
e 1441 1462
e 1441 1463
e 1441 1464
e 1441 1465
e 1441 1466
e 1441 1467
e 1441 1468
e 1441 1469
e 1441 1470
e 1441 1471
e 1441 1472
e 1441 1473
e 1441 1474
e 1441 1475
e 1441 1476
e 1441 1477
e 1441 1478
e 1441 1479
e 1441 1480
e 1441 1481
e 1482 1483
e 1482 1484
e 1482 1485
e 1482 1486
e 1482 1487
e 1482 1488
e 1482 1489
e 1482 1490
e 1482 1491
e 1482 1492
e 1482 1493
e 1482 1494
e 1482 1495
e 1482 1496
e 1482 1497
e 1482 1498
e 1482 1499
e 1482 1500
e 1482 1501
e 1482 1502
e 1482 1503
e 1482 1504
e 1482 1505
e 1482 1506
e 1482 1507
e 1482 1508
e 1482 1509
e 1482 1510
e 1482 1511
e 1482 1512
e 1482 1513
e 1482 1514
e 1482 1515
e 1482 1516
e 1482 1517
e 1482 1518
e 1482 1519
e 1482 1520
e 1482 1521
e 1482 1522
e 1482 1523
e 1482 1524
e 1482 1525
e 1482 1526
e 1482 1527
e 1482 1528
e 1529 1530
e 1529 1531
e 1529 1532
e 1529 1533
e 1529 1534
e 1529 1535
e 1529 1536
e 1529 1537
e 1529 1538
e 1529 1539
e 1529 1540
e 1529 1541
e 1529 1542
e 1529 1543
e 1529 1544
e 1529 1545
e 1529 1546
e 1529 1547
e 1529 1548
e 1529 1549
e 1529 1550
e 1529 1551
e 1529 1552
e 1529 1553
e 1529 1554
e 1529 1555
e 1529 1556
e 1529 1557
e 1529 1558
e 1529 1559
e 1529 1560
e 1529 1561
e 1529 1562
e 1529 1563
e 1529 1564
e 1529 1565
e 1529 1566
e 1529 1567
e 1529 1568
e 1529 1569
e 1529 1570
e 1529 1571
e 1529 1572
e 1529 1573
e 1529 1574
e 1529 1575
e 1529 1576
e 1577 1578
e 1577 1579
e 1577 1580
e 1577 1581
e 1577 1582
e 1577 1583
e 1577 1584
e 1577 1585
e 1577 1586
e 1577 1587
e 1588 1589
e 1588 1590
e 1588 1591
e 1588 1592
e 1588 1593
e 1588 1594
e 1588 1595
e 1588 1596
e 1588 1597
e 1588 1598
e 1588 1599
e 1588 1600
e 1588 1601
e 1588 1602
e 1588 1603
e 1588 1604
e 1588 1605
e 1588 1606
e 1588 1607
e 1588 1608
e 1588 1609
e 1588 1610
e 1588 1611
e 1588 1612
e 1588 1613
e 1588 1614
e 1588 1615
e 1588 1616
e 1588 1617
e 1588 1618
e 1588 1619
e 1588 1620
e 1588 1621
e 1588 1622
e 1588 1623
e 1588 1624
e 1588 1625
e 1588 1626
e 1588 1627
e 1588 1628
e 1588 1629
e 1588 1630
e 1588 1631
e 1588 1632
e 1588 1633
e 1634 1635
e 1634 1636
e 1634 1637
e 1634 1638
e 1634 1639
e 1634 1640
e 1634 1641
e 1634 1642
e 1634 1643
e 1634 1644
e 1634 1645
e 1634 1646
e 1634 1647
e 1634 1648
e 1634 1649
e 1634 1650
e 1634 1651
e 1634 1652
e 1634 1653
e 1634 1654
e 1655 1656
e 1655 1657
e 1655 1658
e 1655 1659
e 1655 1660
e 1655 1661
e 1655 1662
e 1655 1663
e 1655 1664
e 1655 1665
e 1655 1666
e 1655 1667
e 1655 1668
e 1655 1669
e 1655 1670
e 1655 1671
e 1655 1672
e 1655 1673
e 1655 1674
e 1655 1675
e 1655 1676
e 1655 1677
e 1655 1678
e 1655 1679
e 1655 1680
e 1655 1681
e 1655 1682
e 1655 1683
e 1655 1684
e 1655 1685
e 1655 1686
e 1655 1687
e 1655 1688
e 1655 1689
e 1655 1690
e 1655 1691
e 1655 1692
e 1655 1693
e 1655 1694
e 1695 1696
e 1695 1697
e 1695 1698
e 1695 1699
e 1695 1700
e 1695 1701
e 1695 1702
e 1695 1703
e 1695 1704
e 1695 1705
e 1706 1707
e 1706 1708
e 1706 1709
e 1706 1710
e 1706 1711
e 1706 1712
e 1706 1713
e 1706 1714
e 1706 1715
e 1706 1716
e 1706 1717
e 1706 1718
e 1706 1719
e 1706 1720
e 1706 1721
e 1706 1722
e 1706 1723
e 1706 1724
e 1706 1725
e 1706 1726
e 1706 1727
e 1706 1728
e 1706 1729
e 1706 1730
e 1706 1731
e 1706 1732
e 1706 1733
e 1706 1734
e 1706 1735
e 1706 1736
e 1706 1737
e 1706 1738
e 1706 1739
e 1706 1740
e 1706 1741
e 1706 1742
e 1706 1743
e 1706 1744
e 1706 1745
e 1706 1746
e 1706 1747
e 1706 1748
e 1706 1749
e 1706 1750
e 1706 1751
e 1706 1752
e 1706 1753
e 1706 1754
e 1706 1755
e 1706 1756
e 1757 1758
e 1757 1759
e 1757 1760
e 1757 1761
e 1757 1762
e 1757 1763
e 1757 1764
e 1757 1765
e 1757 1766
e 1757 1767
e 1757 1768
e 1757 1769
e 1757 1770
e 1757 1771
e 1757 1772
e 1757 1773
e 1757 1774
e 1757 1775
e 1757 1776
e 1757 1777
e 1757 1778
e 1757 1779
e 1757 1780
e 1757 1781
e 1757 1782
e 1757 1783
e 1757 1784
e 1757 1785
e 1757 1786
e 1757 1787
e 1757 1788
e 1757 1789
e 1790 1791
e 1790 1792
e 1790 1793
e 1790 1794
e 1790 1795
e 1790 1796
e 1790 1797
e 1790 1798
e 1790 1799
e 1790 1800
e 1790 1801
e 1790 1802
e 1790 1803
e 1790 1804
e 1790 1805
e 1790 1806
e 1790 1807
e 1790 1808
e 1790 1809
e 1790 1810
e 1790 1811
e 1790 1812
e 1790 1813
e 1790 1814
e 1790 1815
e 1790 1816
e 1790 1817
e 1790 1818
e 1790 1819
e 1790 1820
e 1790 1821
e 1790 1822
e 1790 1823
e 1790 1824
e 1790 1825
e 1790 1826
e 1790 1827
e 1790 1828
e 1829 1830
e 1829 1831
e 1829 1832
e 1829 1833
e 1829 1834
e 1829 1835
e 1829 1836
e 1829 1837
e 1829 1838
e 1829 1839
e 1829 1840
e 1829 1841
e 1829 1842
e 1829 1843
e 1829 1844
e 1829 1845
e 1829 1846
e 1829 1847
e 1829 1848
e 1829 1849
e 1829 1850
e 1829 1851
e 1829 1852
e 1829 1853
e 1829 1854
e 1829 1855
e 1829 1856
e 1829 1857
e 1829 1858
e 1829 1859
e 1860 1861
e 1860 1862
e 1860 1863
e 1860 1864
e 1860 1865
e 1860 1866
e 1860 1867
e 1860 1868
e 1860 1869
e 1860 1870
e 1860 1871
e 1860 1872
e 1860 1873
e 1860 1874
e 1860 1875
e 1860 1876
e 1860 1877
e 1860 1878
e 1860 1879
e 1860 1880
e 1860 1881
e 1860 1882
e 1860 1883
e 1860 1884
e 1860 1885
e 1860 1886
e 1860 1887
e 1860 1888
e 1860 1889
e 1860 1890
e 1860 1891
e 1860 1892
e 1860 1893
e 1860 1894
e 1860 1895
e 1860 1896
e 1860 1897
e 1860 1898
e 1860 1899
e 1860 1900
e 1860 1901
e 1902 1903
e 1902 1904
e 1902 1905
e 1902 1906
e 1902 1907
e 1902 1908
e 1902 1909
e 1902 1910
e 1902 1911
e 1902 1912
e 1902 1913
e 1914 1915
e 1914 1916
e 1914 1917
e 1914 1918
e 1914 1919
e 1914 1920
e 1914 1921
e 1914 1922
e 1914 1923
e 1914 1924
e 1914 1925
e 1914 1926
e 1914 1927
e 1914 1928
e 1914 1929
e 1914 1930
e 1914 1931
e 1914 1932
e 1914 1933
e 1914 1934
e 1914 1935
e 1914 1936
e 1914 1937
e 1914 1938
e 1914 1939
e 1914 1940
e 1914 1941
e 1914 1942
e 1914 1943
e 1914 1944
e 1914 1945
e 1946 1947
e 1946 1948
e 1946 1949
e 1946 1950
e 1946 1951
e 1946 1952
e 1946 1953
e 1946 1954
e 1946 1955
e 1946 1956
e 1946 1957
e 1946 1958
e 1946 1959
e 1946 1960
e 1946 1961
e 1946 1962
e 1946 1963
e 1946 1964
e 1946 1965
e 1946 1966
e 1946 1967
e 1946 1968
e 1969 1970
e 1969 1971
e 1969 1972
e 1969 1973
e 1969 1974
e 1969 1975
e 1969 1976
e 1969 1977
e 1969 1978
e 1969 1979
e 1969 1980
e 1969 1981
e 1969 1982
e 1969 1983
e 1969 1984
e 1969 1985
e 1969 1986
e 1969 1987
e 1969 1988
e 1969 1989
e 1969 1990
e 1969 1991
e 1969 1992
e 1969 1993
e 1969 1994
e 1969 1995
e 1969 1996
e 1969 1997
e 1969 1998
e 1969 1999
e 1969 2000
e 1969 2001
e 1969 2002
e 1969 2003
e 1969 2004
e 2005 2006
e 2005 2007
e 2005 2008
e 2005 2009
e 2005 2010
e 2005 2011
e 2005 2012
e 2005 2013
e 2005 2014
e 2005 2015
e 2005 2016
e 2005 2017
e 2005 2018
e 2005 2019
e 2005 2020
e 2005 2021
e 2005 2022
e 2005 2023
e 2005 2024
e 2005 2025
e 2005 2026
e 2005 2027
e 2005 2028
e 2005 2029
e 2005 2030
e 2005 2031
e 2005 2032
e 2005 2033
e 2005 2034
e 2005 2035
e 2005 2036
e 2005 2037
e 2005 2038
e 2005 2039
e 2005 2040
e 2005 2041
e 2005 2042
e 2043 2044
e 2043 2045
e 2043 2046
e 2043 2047
e 2043 2048
e 2043 2049
e 2043 2050
e 2043 2051
e 2043 2052
e 2043 2053
e 2043 2054
e 2043 2055
e 2043 2056
e 2043 2057
e 2043 2058
e 2043 2059
e 2043 2060
e 2043 2061
e 2043 2062
e 2043 2063
e 2043 2064
e 2043 2065
e 2043 2066
e 2043 2067
e 2043 2068
e 2043 2069
e 2043 2070
e 2043 2071
e 2043 2072
e 2043 2073
e 2043 2074
e 2043 2075
e 2043 2076
e 2043 2077
e 2043 2078
e 2079 2080
e 2079 2081
e 2079 2082
e 2079 2083
e 2079 2084
e 2079 2085
e 2079 2086
e 2079 2087
e 2079 2088
e 2079 2089
e 2079 2090
e 2079 2091
e 2079 2092
e 2079 2093
e 2079 2094
e 2079 2095
e 2079 2096
e 2079 2097
e 2079 2098
e 2099 2100
e 2099 2101
e 2099 2102
e 2099 2103
e 2099 2104
e 2099 2105
e 2099 2106
e 2099 2107
e 2099 2108
e 2099 2109
e 2099 2110
e 2099 2111
e 2099 2112
e 2099 2113
e 2099 2114
e 2099 2115
e 2099 2116
e 2099 2117
e 2099 2118
e 2099 2119
e 2099 2120
e 2099 2121
e 2099 2122
e 2099 2123
e 2099 2124
e 2099 2125
e 2099 2126
e 2127 2128
e 2127 2129
e 2127 2130
e 2127 2131
e 2127 2132
e 2127 2133
e 2127 2134
e 2127 2135
e 2127 2136
e 2127 2137
e 2127 2138
e 2127 2139
e 2127 2140
e 2127 2141
e 2127 2142
e 2143 2144
e 2143 2145
e 2143 2146
e 2143 2147
e 2143 2148
e 2143 2149
e 2143 2150
e 2143 2151
e 2143 2152
e 2143 2153
e 2143 2154
e 2143 2155
e 2143 2156
e 2143 2157
e 2143 2158
e 2143 2159
e 2143 2160
e 2143 2161
e 2143 2162
e 2143 2163
e 2143 2164
e 2143 2165
e 2143 2166
e 2143 2167
e 2143 2168
e 2143 2169
e 2143 2170
e 2143 2171
e 2143 2172
e 2143 2173
e 2143 2174
e 2143 2175
e 2143 2176
e 2143 2177
e 2143 2178
e 2143 2179
e 2143 2180
e 2143 2181
e 2143 2182
e 2143 2183
e 2143 2184
e 2143 2185
e 2186 2187
e 2186 2188
e 2186 2189
e 2186 2190
e 2186 2191
e 2186 2192
e 2186 2193
e 2186 2194
e 2186 2195
e 2186 2196
e 2186 2197
e 2186 2198
e 2199 2200
e 2199 2201
e 2199 2202
e 2199 2203
e 2199 2204
e 2199 2205
e 2199 2206
e 2199 2207
e 2199 2208
e 2199 2209
e 2199 2210
e 2199 2211
e 2199 2212
e 2199 2213
e 2199 2214
e 2199 2215
e 2199 2216
e 2199 2217
e 2199 2218
e 2199 2219
e 2199 2220
e 2199 2221
e 2199 2222
e 2199 2223
e 2199 2224
e 2199 2225
e 2199 2226
e 2199 2227
e 2199 2228
e 2199 2229
e 2199 2230
e 2199 2231
e 2199 2232
e 2199 2233
e 2234 2235
e 2234 2236
e 2234 2237
e 2234 2238
e 2234 2239
e 2234 2240
e 2234 2241
e 2234 2242
e 2234 2243
e 2234 2244
e 2234 2245
e 2234 2246
e 2234 2247
e 2234 2248
e 2234 2249
e 2234 2250
e 2234 2251
e 2234 2252
e 2234 2253
e 2254 2255
e 2254 2256
e 2254 2257
e 2254 2258
e 2254 2259
e 2254 2260
e 2254 2261
e 2254 2262
e 2254 2263
e 2254 2264
e 2254 2265
e 2254 2266
e 2254 2267
e 2254 2268
e 2254 2269
e 2254 2270
e 2254 2271
e 2254 2272
e 2254 2273
e 2254 2274
e 2254 2275
e 2254 2276
e 2254 2277
e 2254 2278
e 2254 2279
e 2280 2281
e 2280 2282
e 2280 2283
e 2280 2284
e 2280 2285
e 2280 2286
e 2280 2287
e 2280 2288
e 2280 2289
e 2280 2290
e 2280 2291
e 2280 2292
e 2280 2293
e 2280 2294
e 2280 2295
e 2280 2296
e 2280 2297
e 2280 2298
e 2280 2299
e 2280 2300
e 2280 2301
e 2280 2302
e 2280 2303
e 2280 2304
e 2280 2305
e 2280 2306
e 2280 2307
e 2280 2308
e 2280 2309
e 2280 2310
e 2280 2311
e 2280 2312
e 2280 2313
e 2280 2314
e 2280 2315
e 2280 2316
e 2280 2317
e 2280 2318
e 2280 2319
e 2280 2320
e 2280 2321
e 2280 2322
e 2323 2324
e 2323 2325
e 2323 2326
e 2323 2327
e 2323 2328
e 2323 2329
e 2323 2330
e 2323 2331
e 2323 2332
e 2323 2333
e 2323 2334
e 2323 2335
e 2323 2336
e 2323 2337
e 2323 2338
e 2323 2339
e 2323 2340
e 2323 2341
e 2323 2342
e 2323 2343
e 2323 2344
e 2323 2345
e 2323 2346
e 2323 2347
e 2323 2348
e 2323 2349
e 2323 2350
e 2323 2351
e 2323 2352
e 2323 2353
e 2323 2354
e 2323 2355
e 2323 2356
e 2323 2357
e 2323 2358
e 2323 2359
e 2323 2360
e 2323 2361
e 2323 2362
e 2323 2363
e 2323 2364
e 2323 2365
e 2323 2366
e 2367 2368
e 2367 2369
e 2367 2370
e 2367 2371
e 2367 2372
e 2367 2373
e 2367 2374
e 2367 2375
e 2367 2376
e 2367 2377
e 2367 2378
e 2367 2379
e 2367 2380
e 2367 2381
e 2367 2382
e 2367 2383
e 2384 2385
e 2384 2386
e 2384 2387
e 2384 2388
e 2384 2389
e 2384 2390
e 2384 2391
e 2384 2392
e 2384 2393
e 2384 2394
e 2384 2395
e 2384 2396
e 2384 2397
e 2384 2398
e 2384 2399
e 2384 2400
e 2384 2401
e 2384 2402
e 2384 2403
e 2384 2404
e 2384 2405
e 2384 2406
e 2384 2407
e 2384 2408
e 2384 2409
e 2384 2410
e 2384 2411
e 2384 2412
e 2384 2413
e 2384 2414
e 2384 2415
e 2384 2416
e 2384 2417
e 2384 2418
e 2384 2419
e 2420 2421
e 2420 2422
e 2420 2423
e 2420 2424
e 2420 2425
e 2420 2426
e 2420 2427
e 2420 2428
e 2420 2429
e 2420 2430
e 2420 2431
e 2420 2432
e 2433 2434
e 2433 2435
e 2433 2436
e 2433 2437
e 2433 2438
e 2433 2439
e 2433 2440
e 2433 2441
e 2433 2442
e 2433 2443
e 2433 2444
e 2433 2445
e 2433 2446
e 2433 2447
e 2433 2448
e 2433 2449
e 2450 2451
e 2450 2452
e 2450 2453
e 2450 2454
e 2450 2455
e 2450 2456
e 2450 2457
e 2450 2458
e 2450 2459
e 2450 2460
e 2450 2461
e 2450 2462
e 2450 2463
e 2450 2464
e 2450 2465
e 2450 2466
e 2450 2467
e 2450 2468
e 2450 2469
e 2450 2470
e 2450 2471
e 2450 2472
e 2450 2473
e 2450 2474
e 2450 2475
e 2450 2476
e 2450 2477
e 2450 2478
e 2450 2479
e 2450 2480
e 2450 2481
e 2450 2482
e 2450 2483
e 2450 2484
e 2450 2485
e 2450 2486
e 2450 2487
e 2450 2488
e 2450 2489
e 2450 2490
e 2450 2491
e 2450 2492
e 2450 2493
e 2494 2495
e 2494 2496
e 2494 2497
e 2494 2498
e 2494 2499
e 2494 2500
e 2494 2501
e 2494 2502
e 2494 2503
e 2494 2504
e 2505 2506
e 2505 2507
e 2505 2508
e 2505 2509
e 2505 2510
e 2505 2511
e 2505 2512
e 2505 2513
e 2505 2514
e 2505 2515
e 2505 2516
e 2505 2517
e 2505 2518
e 2505 2519
e 2505 2520
e 2505 2521
e 2505 2522
e 2505 2523
e 2505 2524
e 2505 2525
e 2505 2526
e 2505 2527
e 2505 2528
e 2505 2529
e 2505 2530
e 2505 2531
e 2505 2532
e 2505 2533
e 2505 2534
e 2535 2536
e 2535 2537
e 2535 2538
e 2535 2539
e 2535 2540
e 2535 2541
e 2535 2542
e 2535 2543
e 2535 2544
e 2535 2545
e 2535 2546
e 2535 2547
e 2535 2548
e 2535 2549
e 2550 2551
e 2550 2552
e 2550 2553
e 2550 2554
e 2550 2555
e 2550 2556
e 2550 2557
e 2550 2558
e 2550 2559
e 2550 2560
e 2550 2561
e 2550 2562
e 2550 2563
e 2550 2564
e 2550 2565
e 2550 2566
e 2550 2567
e 2550 2568
e 2550 2569
e 2550 2570
e 2550 2571
e 2550 2572
e 2550 2573
e 2574 2575
e 2574 2576
e 2574 2577
e 2574 2578
e 2574 2579
e 2574 2580
e 2574 2581
e 2574 2582
e 2574 2583
e 2574 2584
e 2574 2585
e 2574 2586
e 2574 2587
e 2574 2588
e 2574 2589
e 2574 2590
e 2574 2591
e 2574 2592
e 2574 2593
e 2594 2595
e 2594 2596
e 2594 2597
e 2594 2598
e 2594 2599
e 2594 2600
e 2594 2601
e 2594 2602
e 2594 2603
e 2594 2604
e 2594 2605
e 2594 2606
e 2594 2607
e 2594 2608
e 2594 2609
e 2594 2610
e 2594 2611
e 2594 2612
e 2594 2613
e 2594 2614
e 2594 2615
e 2616 2617
e 2616 2618
e 2616 2619
e 2616 2620
e 2616 2621
e 2616 2622
e 2616 2623
e 2616 2624
e 2616 2625
e 2616 2626
e 2616 2627
e 2616 2628
e 2616 2629
e 2616 2630
e 2616 2631
e 2616 2632
e 2616 2633
e 2616 2634
e 2616 2635
e 2616 2636
e 2616 2637
e 2616 2638
e 2616 2639
e 2616 2640
e 2616 2641
e 2616 2642
e 2643 2644
e 2643 2645
e 2643 2646
e 2643 2647
e 2643 2648
e 2643 2649
e 2643 2650
e 2643 2651
e 2643 2652
e 2643 2653
e 2643 2654
e 2643 2655
e 2643 2656
e 2643 2657
e 2643 2658
e 2643 2659
e 2643 2660
e 2643 2661
e 2643 2662
e 2643 2663
e 2643 2664
e 2643 2665
e 2643 2666
e 2643 2667
e 2643 2668
e 2643 2669
e 2643 2670
e 2643 2671
e 2643 2672
e 2673 2674
e 2673 2675
e 2673 2676
e 2673 2677
e 2673 2678
e 2673 2679
e 2673 2680
e 2673 2681
e 2673 2682
e 2673 2683
e 2673 2684
e 2673 2685
e 2673 2686
e 2673 2687
e 2673 2688
e 2673 2689
e 2673 2690
e 2673 2691
e 2673 2692
e 2673 2693
e 2673 2694
e 2673 2695
e 2673 2696
e 2673 2697
e 2673 2698
e 2673 2699
e 2673 2700
e 2673 2701
e 2673 2702
e 2673 2703
e 2673 2704
e 2673 2705
e 2673 2706
e 2673 2707
e 2673 2708
e 2673 2709
e 2673 2710
e 2673 2711
e 2673 2712
e 2673 2713
e 2673 2714
e 2673 2715
e 2673 2716
e 2673 2717
e 2673 2718
e 2673 2719
e 2673 2720
e 2673 2721
e 2673 2722
e 2723 2724
e 2723 2725
e 2723 2726
e 2723 2727
e 2723 2728
e 2723 2729
e 2723 2730
e 2723 2731
e 2723 2732
e 2723 2733
e 2723 2734
e 2723 2735
e 2723 2736
e 2723 2737
e 2723 2738
e 2723 2739
e 2723 2740
e 2723 2741
e 2723 2742
e 2723 2743
e 2723 2744
e 2723 2745
e 2723 2746
e 2723 2747
e 2723 2748
e 2723 2749
e 2723 2750
e 2723 2751
e 2723 2752
e 2723 2753
e 2723 2754
e 2755 2756
e 2755 2757
e 2755 2758
e 2755 2759
e 2755 2760
e 2755 2761
e 2755 2762
e 2755 2763
e 2755 2764
e 2755 2765
e 2755 2766
e 2755 2767
e 2755 2768
e 2755 2769
e 2755 2770
e 2755 2771
e 2755 2772
e 2755 2773
e 2755 2774
e 2755 2775
e 2755 2776
e 2755 2777
e 2755 2778
e 2755 2779
e 2755 2780
e 2755 2781
e 2755 2782
e 2755 2783
e 2755 2784
e 2755 2785
e 2755 2786
e 2755 2787
e 2788 2789
e 2788 2790
e 2788 2791
e 2788 2792
e 2788 2793
e 2788 2794
e 2788 2795
e 2788 2796
e 2788 2797
e 2788 2798
e 2788 2799
e 2788 2800
e 2788 2801
e 2788 2802
e 2788 2803
e 2788 2804
e 2788 2805
e 2788 2806
e 2788 2807
e 2788 2808
e 2788 2809
e 2788 2810
e 2788 2811
e 2788 2812
e 2788 2813
e 2788 2814
e 2788 2815
e 2788 2816
e 2788 2817
e 2788 2818
e 2788 2819
e 2788 2820
e 2788 2821
e 2788 2822
e 2788 2823
e 2788 2824
e 2788 2825
e 2788 2826
e 2788 2827
e 2788 2828
e 2788 2829
e 2788 2830
e 2788 2831
e 2788 2832
e 2833 2834
e 2833 2835
e 2833 2836
e 2833 2837
e 2833 2838
e 2833 2839
e 2833 2840
e 2833 2841
e 2833 2842
e 2833 2843
e 2833 2844
e 2833 2845
e 2833 2846
e 2833 2847
e 2833 2848
e 2833 2849
e 2833 2850
e 2833 2851
e 2833 2852
e 2833 2853
e 2833 2854
e 2833 2855
e 2833 2856
e 2833 2857
e 2833 2858
e 2833 2859
e 2833 2860
e 2833 2861
e 2862 2863
e 2862 2864
e 2862 2865
e 2862 2866
e 2862 2867
e 2862 2868
e 2862 2869
e 2862 2870
e 2862 2871
e 2862 2872
e 2862 2873
e 2862 2874
e 2862 2875
e 2862 2876
e 2862 2877
e 2862 2878
e 2862 2879
e 2862 2880
e 2862 2881
e 2862 2882
e 2862 2883
e 2862 2884
e 2862 2885
e 2862 2886
e 2862 2887
e 2862 2888
e 2889 2890
e 2889 2891
e 2889 2892
e 2889 2893
e 2889 2894
e 2889 2895
e 2889 2896
e 2889 2897
e 2889 2898
e 2889 2899
e 2889 2900
e 2889 2901
e 2889 2902
e 2889 2903
e 2889 2904
e 2889 2905
e 2889 2906
e 2889 2907
e 2889 2908
e 2889 2909
e 2889 2910
e 2889 2911
e 2889 2912
e 2889 2913
e 2889 2914
e 2889 2915
e 2889 2916
e 2889 2917
e 2889 2918
e 2889 2919
e 2889 2920
e 2889 2921
e 2889 2922
e 2889 2923
e 2889 2924
e 2889 2925
e 2889 2926
e 2889 2927
e 2889 2928
e 2929 2930
e 2929 2931
e 2929 2932
e 2929 2933
e 2929 2934
e 2929 2935
e 2929 2936
e 2929 2937
e 2929 2938
e 2929 2939
e 2929 2940
e 2929 2941
e 2929 2942
e 2929 2943
e 2929 2944
e 2929 2945
e 2929 2946
e 2929 2947
e 2929 2948
e 2929 2949
e 2929 2950
e 2929 2951
e 2929 2952
e 2929 2953
e 2929 2954
e 2929 2955
e 2929 2956
e 2929 2957
e 2929 2958
e 2929 2959
e 2929 2960
e 2929 2961
e 2929 2962
e 2929 2963
e 2929 2964
e 2929 2965
e 2929 2966
e 2929 2967
e 2929 2968
e 2929 2969
e 2970 2971
e 2970 2972
e 2970 2973
e 2970 2974
e 2970 2975
e 2970 2976
e 2970 2977
e 2970 2978
e 2970 2979
e 2970 2980
e 2970 2981
e 2970 2982
e 2970 2983
e 2970 2984
e 2970 2985
e 2970 2986
e 2970 2987
e 2970 2988
e 2970 2989
e 2970 2990
e 2970 2991
e 2970 2992
e 2970 2993
e 2970 2994
e 2970 2995
e 2970 2996
e 2970 2997
e 2970 2998
e 2970 2999
e 3000 3001
e 3000 3002
e 3000 3003
e 3000 3004
e 3000 3005
e 3000 3006
e 3000 3007
e 3000 3008
e 3000 3009
e 3000 3010
e 3000 3011
e 3000 3012
